pure_adt/isaplanner_prop_54.smt2
(set-logic HORN)
(declare-datatypes ((Nat_81 0)) (((Z_229 ) (S_81 (projS_78 Nat_81)))))
(declare-fun diseqNat_81 (Nat_81 Nat_81) Bool)
(declare-fun projS_79 (Nat_81 Nat_81) Bool)
(declare-fun isZ_81 (Nat_81) Bool)
(declare-fun isS_81 (Nat_81) Bool)
(assert (forall ((x_2270 Nat_81))
	(projS_79 x_2270 (S_81 x_2270))))
(assert (isZ_81 Z_229))
(assert (forall ((x_2272 Nat_81))
	(isS_81 (S_81 x_2272))))
(assert (forall ((x_2273 Nat_81))
	(diseqNat_81 Z_229 (S_81 x_2273))))
(assert (forall ((x_2274 Nat_81))
	(diseqNat_81 (S_81 x_2274) Z_229)))
(assert (forall ((x_2275 Nat_81) (x_2276 Nat_81))
	(=> (diseqNat_81 x_2275 x_2276)
	    (diseqNat_81 (S_81 x_2275) (S_81 x_2276)))))
(declare-fun x_2254 (Nat_81 Nat_81 Nat_81) Bool)
(assert (forall ((x_2259 Nat_81) (x_2256 Nat_81) (z_230 Nat_81))
	(=> (x_2254 x_2259 z_230 x_2256)
	    (x_2254 x_2259 (S_81 z_230) (S_81 x_2256)))))
(assert (forall ((z_230 Nat_81))
	(x_2254 (S_81 z_230) (S_81 z_230) Z_229)))
(assert (forall ((y_179 Nat_81))
	(x_2254 Z_229 Z_229 y_179)))
(declare-fun x_2257 (Nat_81 Nat_81 Nat_81) Bool)
(assert (forall ((x_2264 Nat_81) (z_231 Nat_81) (y_180 Nat_81))
	(=> (x_2257 x_2264 z_231 y_180)
	    (x_2257 (S_81 x_2264) (S_81 z_231) y_180))))
(assert (forall ((x_2265 Nat_81))
	(x_2257 x_2265 Z_229 x_2265)))
(assert (forall ((x_2266 Nat_81) (x_2267 Nat_81) (n_17 Nat_81) (m_7 Nat_81))
	(=>	(and true
			(diseqNat_81 x_2267 m_7)
			(x_2257 x_2266 m_7 n_17)
			(x_2254 x_2267 x_2266 n_17))
		false)))
(check-sat)
